 $contrl scftyp=rhf runtyp=energy icharg=0 mult=1 units=angstrom
         coord=fragonly ispher=-1 
         icut=20 itol=30 $end
 $scf    dirscf=.t. fdiff=.f. diis=.t. soscf=.f.
         conv=1d-11  $end
 $system mwords=125 $end
 $efrag
coord=cart iscrelec=1 iscrpol=1 iscrdisp=0 nodisp
fragname=FRAG1
A01O    0.96943962   -4.30611830   -2.18131914
A02H    1.33484947   -5.15964797   -1.90563925
A03H    0.84645967   -3.85900848   -1.31465948
fragname=FRAG1
A01O    0.68566672   -3.29150751    0.35530271
A02H    1.27681435   -2.98781302    1.05982438
A03H   -0.15089179   -2.83377588    0.59359212
 $end
 $FRAG1
EFP DATA FOR FRAGNAME SCFTYP=RHF     ... GENERATED WITH BASIS SET=XXX
 COORDINATES (BOHR)
A01O       0.0048611891   0.1306605128   0.0000000000  15.9949100  8.0
A02H       1.3876132584  -1.0684166089   0.0000000000   1.0078250  1.0
A03H      -1.4647638380  -1.0052600150   0.0000000000   1.0078250  1.0
BO21       0.6962372238  -0.4688780480   0.0000000000   0.0000000  0.0
BO31      -0.7299513244  -0.4372997511   0.0000000000   0.0000000  0.0
 STOP
 MONOPOLES 
A01O      -8.2325992403   8.00000
A02H      -0.4259023519   1.00000
A03H      -0.4261809383   1.00000
BO21      -0.4706108509   0.00000
BO31      -0.4447066186   0.00000
 STOP
 DIPOLES 
A01O       -0.0072024056   -0.5520030805    0.0000000000
A02H        0.0333605124   -0.0297980321    0.0000000000
A03H       -0.0347213954   -0.0274399038    0.0000000000
BO21       -0.2472776406    0.2570337070    0.0000000000
BO31        0.2737262879    0.2308457279    0.0000000000
 STOP
 QUADRUPOLES 
A01O       -3.7562323441   -4.1576262366   -4.8700971992   -0.0141444789 >
            0.0000000000    0.0000000000
A02H       -0.2372184249   -0.2421242771   -0.2443065934    0.0016480294 >
            0.0000000000    0.0000000000
A03H       -0.2419563018   -0.2462941903   -0.2484546555   -0.0020266430 >
            0.0000000000    0.0000000000
BO21       -0.1781721718   -0.1868175527   -0.1837469682    0.0004658968 >
            0.0000000000    0.0000000000
BO31       -0.1324377992   -0.1431724197   -0.1483747585   -0.0090902753 >
            0.0000000000    0.0000000000
 STOP
 OCTUPOLES  
A01O         -0.022048710     -1.486289084      0.000000000     -0.470412739 >
              0.000000000     -0.009135124      0.000000000     -0.008419259 >
             -0.491979230      0.000000000
A02H          0.002843192     -0.025511195      0.000000000     -0.006978546 >
              0.000000000      0.001588208      0.000000000      0.003658923 >
             -0.009596217      0.000000000
A03H         -0.003067419     -0.024510908      0.000000000     -0.006839907 >
              0.000000000     -0.001933774      0.000000000     -0.003806482 >
             -0.009115541      0.000000000
BO21         -0.570816776      0.699725185      0.000000000      0.253569906 >
              0.000000000     -0.205098386      0.000000000     -0.180068555 >
              0.225506574      0.000000000
BO31          0.702349731      0.597458972      0.000000000      0.217653634 >
              0.000000000      0.248718865      0.000000000      0.219714572 >
              0.194082047      0.000000000
 STOP
 POLARIZABLE POINTS
CT1   0.0048526736   0.1301657906   0.0000000000
    0.0037132542    0.0061381271    0.0052247187    0.0000826903 >
    0.0000000000    0.0000000001    0.0000199588    0.0000000000 >
    0.0000000000
CT2   0.7438647372  -0.5242563509   0.0000000012
    2.6423690269    1.9067818101    0.3711235751   -1.7505754729 >
    0.0000000012   -0.0000000014   -1.5994770205    0.0000000021 >
   -0.0000000023
CT3  -0.7768900509  -0.4873569769   0.0000000009
    2.9335234526    1.7945323961    0.3790837084    1.7809305938 >
   -0.0000000010   -0.0000000010    1.6303276273   -0.0000000017 >
   -0.0000000016
CT4   0.0120640186   0.4153348238  -0.5096521003
    1.0895352916    1.3001444462    2.2958616805    0.0166173290 >
   -0.0274764422   -0.8307633903    0.0160990653   -0.0329136303 >
   -0.9570612982
CT5   0.0120640184   0.4153348267   0.5096520983
    1.0895353043    1.3001444619    2.2958616628    0.0166173280 >
    0.0274764420    0.8307633927    0.0160990643    0.0329136299 >
    0.9570613021
 STOP
 DYNAMIC POLARIZABLE POINTS
CT  1   0.0048526736   0.1301657906   0.0000000000 -- FOR W= 0.002792I A.U.
    0.0036923422    0.0061438459    0.0051886496    0.0000728878 >
    0.0000000000    0.0000000001    0.0000207649    0.0000000000 >
    0.0000000000
CT  2   0.7438647372  -0.5242563509   0.0000000012
    2.6421287625    1.9066920213    0.3710210174   -1.7507631067 >
    0.0000000012   -0.0000000014   -1.5993616847    0.0000000021 >
   -0.0000000022
CT  3  -0.7768900509  -0.4873569769   0.0000000009
    2.9335436193    1.7944571781    0.3789748948    1.7809744604 >
   -0.0000000010   -0.0000000010    1.6302179318   -0.0000000017 >
   -0.0000000016
CT  4   0.0120640186   0.4153348238  -0.5096521003
    1.0896336379    1.3001327175    2.2959613385    0.0163973428 >
   -0.0274776534   -0.8307170109    0.0161009576   -0.0329632063 >
   -0.9570264551
CT  5   0.0120640184   0.4153348267   0.5096520983
    1.0896336506    1.3001327332    2.2959613208    0.0163973418 >
    0.0274776531    0.8307170132    0.0161009566    0.0329632059 >
    0.9570264590
CT  1   0.0048526736   0.1301657906   0.0000000000 -- FOR W= 0.015107I A.U.
    0.0036935921    0.0061425853    0.0051867411    0.0000728016 >
    0.0000000000    0.0000000001    0.0000207649    0.0000000000 >
    0.0000000000
CT  2   0.7438647372  -0.5242563509   0.0000000012
    2.6406443179    1.9056462884    0.3709734690   -1.7495213969 >
    0.0000000012   -0.0000000014   -1.5980264043    0.0000000021 >
   -0.0000000022
CT  3  -0.7768900509  -0.4873569769   0.0000000009
    2.9317943659    1.7934651622    0.3789237763    1.7796736263 >
   -0.0000000010   -0.0000000010    1.6288171854   -0.0000000017 >
   -0.0000000016
CT  4   0.0120640186   0.4153348238  -0.5096521003
    1.0891491465    1.2990878576    2.2937747293    0.0163589884 >
   -0.0274382830   -0.8297846999    0.0160657309   -0.0328813188 >
   -0.9551895084
CT  5   0.0120640184   0.4153348267   0.5096520983
    1.0891491591    1.2990878733    2.2937747116    0.0163589874 >
    0.0274382828    0.8297847023    0.0160657299    0.0328813183 >
    0.9551895123
CT  1   0.0048526736   0.1301657906   0.0000000000 -- FOR W= 0.039002I A.U.
    0.0037008569    0.0061352165    0.0051756764    0.0000722989 >
    0.0000000000    0.0000000001    0.0000207632    0.0000000000 >
    0.0000000000
CT  2   0.7438647372  -0.5242563509   0.0000000012
    2.6319788069    1.8995490459    0.3706990242   -1.7422747776 >
    0.0000000012   -0.0000000014   -1.5902505137    0.0000000021 >
   -0.0000000022
CT  3  -0.7768900509  -0.4873569769   0.0000000009
    2.9215863129    1.7876822708    0.3786286788    1.7720834643 >
   -0.0000000009   -0.0000000010    1.6206612028   -0.0000000017 >
   -0.0000000016
CT  4   0.0120640186   0.4153348238  -0.5096521003
    1.0863208371    1.2930117493    2.2810962418    0.0161365988 >
   -0.0272097603   -0.8243638081    0.0158613656   -0.0324094325 >
   -0.9445746668
CT  5   0.0120640184   0.4153348267   0.5096520983
    1.0863208497    1.2930117649    2.2810962242    0.0161365978 >
    0.0272097600    0.8243638105    0.0158613645    0.0324094321 >
    0.9445746706
CT  1   0.0048526736   0.1301657906   0.0000000000 -- FOR W= 0.077996I A.U.
    0.0037256125    0.0061095615    0.0051383165    0.0000705648 >
    0.0000000000    0.0000000001    0.0000207296    0.0000000000 >
    0.0000000000
CT  2   0.7438647372  -0.5242563509   0.0000000012
    2.6019618831    1.8785214921    0.3697876258   -1.7171982209 >
    0.0000000012   -0.0000000014   -1.5635593753    0.0000000020 >
   -0.0000000021
CT  3  -0.7768900509  -0.4873569769   0.0000000009
    2.8862688868    1.7677537274    0.3776480805    1.7458376412 >
   -0.0000000009   -0.0000000010    1.5926802870   -0.0000000016 >
   -0.0000000016
CT  4   0.0120640186   0.4153348238  -0.5096521003
    1.0765225609    1.2722668755    2.2382658136    0.0153858078 >
   -0.0264350720   -0.8058655051    0.0151699797   -0.0308522591 >
   -0.9091793889
CT  5   0.0120640184   0.4153348267   0.5096520983
    1.0765225733    1.2722668907    2.2382657964    0.0153858068 >
    0.0264350717    0.8058655075    0.0151699787    0.0308522587 >
    0.9091793926
CT  1   0.0048526736   0.1301657906   0.0000000000 -- FOR W= 0.138651I A.U.
    0.0037899021    0.0060385454    0.0050431165    0.0000658936 >
    0.0000000000    0.0000000001    0.0000204350    0.0000000000 >
    0.0000000000
CT  2   0.7438647372  -0.5242563509   0.0000000012
    2.5200874039    1.8218333928    0.3675702902   -1.6490018953 >
    0.0000000011   -0.0000000013   -1.4925726703    0.0000000017 >
   -0.0000000019
CT  3  -0.7768900509  -0.4873569769   0.0000000009
    2.7902594559    1.7141402531    0.3752577032    1.6746081571 >
   -0.0000000009   -0.0000000010    1.5183766552   -0.0000000014 >
   -0.0000000014
CT  4   0.0120640186   0.4153348238  -0.5096521003
    1.0497824251    1.2179518593    2.1290260963    0.0134846890 >
   -0.0244484307   -0.7575102378    0.0134085568   -0.0271409624 >
   -0.8222734480
CT  5   0.0120640184   0.4153348267   0.5096520983
    1.0497824370    1.2179518737    2.1290260801    0.0134846880 >
    0.0244484305    0.7575102400    0.0134085558    0.0271409621 >
    0.8222734513
CT  1   0.0048526736   0.1301657906   0.0000000000 -- FOR W= 0.233223I A.U.
    0.0039211960    0.0058669461    0.0048491971    0.0000553521 >
    0.0000000000    0.0000000001    0.0000187643    0.0000000000 >
    0.0000000000
CT  2   0.7438647372  -0.5242563509   0.0000000012
    2.3293221159    1.6926856194    0.3634706007   -1.4913059204 >
    0.0000000010   -0.0000000012   -1.3361026892    0.0000000012 >
   -0.0000000015
CT  3  -0.7768900509  -0.4873569769   0.0000000009
    2.5682089573    1.5925572984    0.3708146266    1.5106380653 >
   -0.0000000008   -0.0000000008    1.3551868822   -0.0000000010 >
   -0.0000000011
CT  4   0.0120640186   0.4153348238  -0.5096521003
    0.9873308952    1.1027965216    1.9069009252    0.0097933054 >
   -0.0204494545   -0.6554732806    0.0099355753   -0.0207425777 >
   -0.6615809865
CT  5   0.0120640184   0.4153348267   0.5096520983
    0.9873309059    1.1027965340    1.9069009110    0.0097933045 >
    0.0204494543    0.6554732825    0.0099355743    0.0207425775 >
    0.6615809891
CT  1   0.0048526736   0.1301657906   0.0000000000 -- FOR W= 0.385897I A.U.
    0.0041001759    0.0055027353    0.0045278831    0.0000361835 >
    0.0000000000    0.0000000000    0.0000126794    0.0000000000 >
    0.0000000000
CT  2   0.7438647372  -0.5242563509   0.0000000012
    1.9555556683    1.4456524051    0.3571331481   -1.1878873845 >
    0.0000000008   -0.0000000009   -1.0564881412    0.0000000006 >
   -0.0000000011
CT  3  -0.7768900509  -0.4873569769   0.0000000009
    2.1386616368    1.3617234472    0.3638975107    1.1975468561 >
   -0.0000000006   -0.0000000007    1.0656295928   -0.0000000005 >
   -0.0000000008
CT  4   0.0120640186   0.4153348238  -0.5096521003
    0.8638883676    0.9132659096    1.5491215702    0.0049125796 >
   -0.0145719948   -0.4900143290    0.0051833417   -0.0133774395 >
   -0.4504410717
CT  5   0.0120640184   0.4153348267   0.5096520983
    0.8638883760    0.9132659188    1.5491215592    0.0049125788 >
    0.0145719946    0.4900143306    0.0051833410    0.0133774394 >
    0.4504410735
CT  1   0.0048526736   0.1301657906   0.0000000000 -- FOR W= 0.649114I A.U.
    0.0041384508    0.0048479103    0.0040499524    0.0000113671 >
    0.0000000000    0.0000000000    0.0000001183    0.0000000000 >
    0.0000000000
CT  2   0.7438647372  -0.5242563509   0.0000000012
    1.3867120751    1.0665855433    0.3433706820   -0.7457746381 >
    0.0000000005   -0.0000000006   -0.6733786039    0.0000000003 >
   -0.0000000006
CT  3  -0.7768900509  -0.4873569769   0.0000000009
    1.4960600511    1.0099168547    0.3491570790    0.7458844599 >
   -0.0000000004   -0.0000000005    0.6732609542   -0.0000000003 >
   -0.0000000005
CT  4   0.0120640186   0.4153348238  -0.5096521003
    0.6709851221    0.6841679617    1.0949260673    0.0015021519 >
   -0.0087748086   -0.3005445116    0.0016215120   -0.0077194625 >
   -0.2600697293
CT  5   0.0120640184   0.4153348267   0.5096520983
    0.6709851271    0.6841679673    1.0949260604    0.0015021513 >
    0.0087748085    0.3005445127    0.0016215115    0.0077194624 >
    0.2600697304
CT  1   0.0048526736   0.1301657906   0.0000000000 -- FOR W= 1.153904I A.U.
    0.0036819293    0.0038433296    0.0032989210   -0.0000079785 >
    0.0000000000    0.0000000000   -0.0000124393    0.0000000000 >
    0.0000000000
CT  2   0.7438647372  -0.5242563509   0.0000000012
    0.7689802846    0.6281668642    0.2985379350   -0.3149560968 >
    0.0000000004   -0.0000000004   -0.2979289008    0.0000000003 >
   -0.0000000004
CT  3  -0.7768900509  -0.4873569769   0.0000000009
    0.8128078561    0.6024505961    0.3026465055    0.3109960665 >
   -0.0000000003   -0.0000000003    0.2940728961   -0.0000000002 >
   -0.0000000003
CT  4   0.0120640186   0.4153348238  -0.5096521003
    0.4417438057    0.4630931357    0.6471213105    0.0008282987 >
   -0.0045803731   -0.1514504227    0.0007785163   -0.0040866180 >
   -0.1341626123
CT  5   0.0120640184   0.4153348267   0.5096520983
    0.4417438076    0.4630931384    0.6471213073    0.0008282985 >
    0.0045803730    0.1514504234    0.0007785161    0.0040866180 >
    0.1341626129
CT  1   0.0048526736   0.1301657906   0.0000000000 -- FOR W= 2.307592I A.U.
    0.0026137553    0.0025337550    0.0021769811   -0.0000149682 >
    0.0000000000    0.0000000000   -0.0000163935    0.0000000000 >
    0.0000000000
CT  2   0.7438647372  -0.5242563509   0.0000000012
    0.2994401072    0.2611172160    0.1838344083   -0.0702935181 >
    0.0000000002   -0.0000000002   -0.0705170273    0.0000000002 >
   -0.0000000002
CT  3  -0.7768900509  -0.4873569769   0.0000000009
    0.3087205267    0.2551727915    0.1856242814    0.0679221633 >
   -0.0000000002   -0.0000000001    0.0682252005   -0.0000000002 >
   -0.0000000001
CT  4   0.0120640186   0.4153348238  -0.5096521003
    0.2126313020    0.2382590439    0.2876559266    0.0007563263 >
   -0.0017868408   -0.0594669760    0.0007172750   -0.0016743530 >
   -0.0571230940
CT  5   0.0120640184   0.4153348267   0.5096520983
    0.2126313023    0.2382590449    0.2876559256    0.0007563263 >
    0.0017868407    0.0594669763    0.0007172749    0.0016743529 >
    0.0571230943
CT  1   0.0048526736   0.1301657906   0.0000000000 -- FOR W= 5.957643I A.U.
    0.0015420099    0.0014370064    0.0011934852   -0.0000124434 >
    0.0000000000    0.0000000000   -0.0000124314    0.0000000000 >
    0.0000000000
CT  2   0.7438647372  -0.5242563509   0.0000000012
    0.0587013342    0.0536221462    0.0468402001   -0.0066207588 >
    0.0000000001   -0.0000000000   -0.0068444637    0.0000000001 >
   -0.0000000000
CT  3  -0.7768900509  -0.4873569769   0.0000000009
    0.0595022718    0.0530720771    0.0471303124    0.0062001994 >
   -0.0000000000   -0.0000000000    0.0064341099   -0.0000000000 >
   -0.0000000000
CT  4   0.0120640186   0.4153348238  -0.5096521003
    0.0474204985    0.0549965118    0.0626494806    0.0002072301 >
   -0.0003472327   -0.0120718303    0.0002021213   -0.0003391442 >
   -0.0120519006
CT  5   0.0120640184   0.4153348267   0.5096520983
    0.0474204985    0.0549965119    0.0626494804    0.0002072301 >
    0.0003472327    0.0120718304    0.0002021213    0.0003391442 >
    0.0120519007
CT  1   0.0048526736   0.1301657906   0.0000000000 -- FOR W=32.239080I A.U.
    0.0004093657    0.0003791863    0.0003113236   -0.0000036491 >
   -0.0000000000    0.0000000000   -0.0000035639    0.0000000000 >
   -0.0000000000
CT  2   0.7438647372  -0.5242563509   0.0000000012
    0.0021296885    0.0019705035    0.0018070390   -0.0001630535 >
    0.0000000000   -0.0000000000   -0.0001719745    0.0000000000 >
   -0.0000000000
CT  3  -0.7768900509  -0.4873569769   0.0000000009
    0.0021482200    0.0019574901    0.0018163680    0.0001493536 >
   -0.0000000000   -0.0000000000    0.0001586217   -0.0000000000 >
   -0.0000000000
CT  4   0.0120640186   0.4153348238  -0.5096521003
    0.0017948171    0.0020806588    0.0023396298    0.0000078078 >
   -0.0000127105   -0.0004462052    0.0000075917   -0.0000124600 >
   -0.0004491536
CT  5   0.0120640184   0.4153348267   0.5096520983
    0.0017948171    0.0020806588    0.0023396298    0.0000078078 >
    0.0000127105    0.0004462052    0.0000075917    0.0000124600 >
    0.0004491536
 STOP
 DIPOLE-QUADRUPOLE DYNAMIC POLARIZABLE POINTS
CT  1   0.0048526736   0.1301657906   0.0000000000 -- FOR W= 0.002792I A.U.
    0.0003583436    0.0062287026    0.0000000000    0.0062283232 >
   -0.0002648367    0.0000000000    0.0000000000    0.0000000000 >
   -0.0001036839   -0.0002709881   -0.0000731246    0.0000000000 >
   -0.0000833016    0.0028040962    0.0000000001    0.0000000000 >
    0.0000000001   -0.0025327288   -0.0000000001    0.0000000000 >
    0.0000542564   -0.0000000000   -0.0000000001    0.0019292374 >
    0.0000542564    0.0019292374    0.0000000001
CT  2   0.7438647372  -0.5242563509   0.0000000012
   -0.4656652551   -0.1453550231   -0.0000000058    0.0235782455 >
    0.2412656974    0.0000000043   -0.0000000048    0.0000000033 >
    0.1053398222    0.4542814264   -0.3726015477    0.0000000064 >
   -0.4916612833   -0.1229230825   -0.0000000051    0.0000000057 >
   -0.0000000044   -0.5002916125   -0.0000000036    0.0000000024 >
    0.1306614690    0.0000000026   -0.0000000009   -0.1016700247 >
    0.1306614690   -0.1016700247    0.0000000028
CT  3  -0.7768900509  -0.4873569769   0.0000000009
    0.4659523566   -0.1719210885   -0.0000000050    0.0037607823 >
   -0.2359539469   -0.0000000033   -0.0000000042   -0.0000000026 >
   -0.1197900407    0.4946867483    0.3264679676   -0.0000000049 >
    0.4366763366   -0.1739697965   -0.0000000035   -0.0000000044 >
   -0.0000000031   -0.4963988226   -0.0000000030   -0.0000000017 >
   -0.1504797772   -0.0000000018   -0.0000000005   -0.1048709459 >
   -0.1504797772   -0.1048709459    0.0000000022
CT  4   0.0120640186   0.4153348238  -0.5096521003
   -0.0299393594   -0.4447440615    0.4759792491   -0.4447494249 >
    0.0097432084    0.0053264363    0.4758799824    0.0016823446 >
    0.0242050877    0.2001503111   -0.0120299041    0.0132794212 >
   -0.0122145527   -0.2238888635    0.7718783765    0.0112203020 >
    0.6931873104    0.1203047261   -1.0456436390    0.0333665650 >
   -0.0525657058    0.0322347525    0.1875339452   -1.9857416331 >
   -0.0483721205   -1.8891808228    0.9369000266
CT  5   0.0120640184   0.4153348267   0.5096520983
   -0.0299393602   -0.4447440796   -0.4759792574   -0.4447494430 >
    0.0097432097   -0.0053264352   -0.4758799907   -0.0016823436 >
    0.0242050870    0.2001503145   -0.0120299025   -0.0132794204 >
   -0.0122145511   -0.2238888761   -0.7718783912   -0.0112203012 >
   -0.6931873236    0.1203047361    1.0456436322   -0.0333665647 >
   -0.0525657047   -0.0322347522   -0.1875339669   -1.9857416289 >
   -0.0483721195   -1.8891808178   -0.9368999996
CT  1   0.0048526736   0.1301657906   0.0000000000 -- FOR W= 0.015107I A.U.
    0.0003581267    0.0062260609    0.0000000000    0.0062256821 >
   -0.0002646997    0.0000000000    0.0000000000    0.0000000000 >
   -0.0001035871   -0.0002722412   -0.0000730658    0.0000000000 >
   -0.0000832258    0.0028040602    0.0000000001    0.0000000000 >
    0.0000000001   -0.0025314403   -0.0000000001    0.0000000000 >
    0.0000542393   -0.0000000000   -0.0000000001    0.0019286140 >
    0.0000542393    0.0019286140    0.0000000001
CT  2   0.7438647372  -0.5242563509   0.0000000012
   -0.4655049174   -0.1453249485   -0.0000000058    0.0237127258 >
    0.2411402970    0.0000000043   -0.0000000048    0.0000000033 >
    0.1052313025    0.4537629887   -0.3724125092    0.0000000064 >
   -0.4915458272   -0.1228232922   -0.0000000051    0.0000000057 >
   -0.0000000044   -0.4999773709   -0.0000000036    0.0000000024 >
    0.1306059972    0.0000000026   -0.0000000009   -0.1016297950 >
    0.1306059972   -0.1016297950    0.0000000028
CT  3  -0.7768900509  -0.4873569769   0.0000000009
    0.4657696010   -0.1718829124   -0.0000000050    0.0039153897 >
   -0.2358282039   -0.0000000033   -0.0000000042   -0.0000000026 >
   -0.1196599887    0.4941553289    0.3263253680   -0.0000000049 >
    0.4366067765   -0.1738553522   -0.0000000035   -0.0000000044 >
   -0.0000000031   -0.4960982788   -0.0000000030   -0.0000000017 >
   -0.1504125526   -0.0000000019   -0.0000000005   -0.1048264048 >
   -0.1504125526   -0.1048264048    0.0000000022
CT  4   0.0120640186   0.4153348238  -0.5096521003
   -0.0299268034   -0.4442640153    0.4753335592   -0.4442693221 >
    0.0097349589    0.0052860197    0.4752350619    0.0016708074 >
    0.0241702263    0.1994881003   -0.0119955877    0.0132387121 >
   -0.0121782877   -0.2236869357    0.7703572176    0.0111935721 >
    0.6922297416    0.1200733783   -1.0446108741    0.0332882008 >
   -0.0524652726    0.0321665063    0.1866978323   -1.9825166390 >
   -0.0483041907   -1.8866474030    0.9361390152
CT  5   0.0120640184   0.4153348267   0.5096520983
   -0.0299268041   -0.4442640334   -0.4753335676   -0.4442693402 >
    0.0097349603   -0.0052860186   -0.4752350702   -0.0016708063 >
    0.0241702255    0.1994881036   -0.0119955861   -0.0132387113 >
   -0.0121782862   -0.2236869483   -0.7703572323   -0.0111935714 >
   -0.6922297548    0.1200733883    1.0446108673   -0.0332882004 >
   -0.0524652715   -0.0321665059   -0.1866978539   -1.9825166348 >
   -0.0483041897   -1.8866473980   -0.9361389883
CT  1   0.0048526736   0.1301657906   0.0000000000 -- FOR W= 0.039002I A.U.
    0.0003568609    0.0062106118    0.0000000000    0.0062102367 >
   -0.0002638997    0.0000000000    0.0000000000    0.0000000000 >
   -0.0001030234   -0.0002795168   -0.0000727219    0.0000000000 >
   -0.0000827841    0.0028038189    0.0000000001    0.0000000000 >
    0.0000000001   -0.0025239269   -0.0000000001    0.0000000000 >
    0.0000541402   -0.0000000000   -0.0000000001    0.0019249962 >
    0.0000541402    0.0019249962    0.0000000001
CT  2   0.7438647372  -0.5242563509   0.0000000012
   -0.4645565933   -0.1451350091   -0.0000000057    0.0244932245 >
    0.2404026742    0.0000000042   -0.0000000047    0.0000000033 >
    0.1046043904    0.4507503146   -0.3713093543    0.0000000063 >
   -0.4908588831   -0.1222400148   -0.0000000051    0.0000000057 >
   -0.0000000044   -0.4981385334   -0.0000000035    0.0000000024 >
    0.1302838722    0.0000000026   -0.0000000009   -0.1013959125 >
    0.1302838722   -0.1013959125    0.0000000028
CT  3  -0.7768900509  -0.4873569769   0.0000000009
    0.4646925295   -0.1716442901   -0.0000000050    0.0048133825 >
   -0.2350895786   -0.0000000033   -0.0000000041   -0.0000000026 >
   -0.1189079075    0.4910663045    0.3254917815   -0.0000000049 >
    0.4361868249   -0.1731855368   -0.0000000035   -0.0000000044 >
   -0.0000000030   -0.4943384403   -0.0000000030   -0.0000000017 >
   -0.1500220701   -0.0000000019   -0.0000000005   -0.1045674265 >
   -0.1500220701   -0.1045674265    0.0000000022
CT  4   0.0120640186   0.4153348238  -0.5096521003
   -0.0298514133   -0.4414699047    0.4715749580   -0.4414748853 >
    0.0096882022    0.0050544081    0.4714808646    0.0016045909 >
    0.0239667760    0.1956733094   -0.0117967650    0.0130038896 >
   -0.0119682359   -0.2224878373    0.7615610406    0.0110389603 >
    0.6866694069    0.1187180834   -1.0386170121    0.0328370229 >
   -0.0518865188    0.0317729545    0.1818866327   -1.9638752891 >
   -0.0479114830   -1.8719767141    0.9317161066
CT  5   0.0120640184   0.4153348267   0.5096520983
   -0.0298514141   -0.4414699227   -0.4715749663   -0.4414749033 >
    0.0096882036   -0.0050544070   -0.4714808729   -0.0016045898 >
    0.0239667752    0.1956733128   -0.0117967634   -0.0130038888 >
   -0.0119682343   -0.2224878498   -0.7615610552   -0.0110389595 >
   -0.6866694200    0.1187180934    1.0386170054   -0.0328370226 >
   -0.0518865177   -0.0317729543   -0.1818866540   -1.9638752849 >
   -0.0479114820   -1.8719767092   -0.9317160799
CT  1   0.0048526736   0.1301657906   0.0000000000 -- FOR W= 0.077996I A.U.
    0.0003524829    0.0061567251    0.0000000000    0.0061563623 >
   -0.0002611238    0.0000000000    0.0000000000    0.0000000000 >
   -0.0001010893   -0.0003042097   -0.0000715264    0.0000000000 >
   -0.0000812566    0.0028025811    0.0000000001    0.0000000000 >
    0.0000000001   -0.0024980087   -0.0000000001    0.0000000000 >
    0.0000538029   -0.0000000000   -0.0000000001    0.0019127312 >
    0.0000538029    0.0019127312    0.0000000001
CT  2   0.7438647372  -0.5242563509   0.0000000012
   -0.4611122699   -0.1442925598   -0.0000000056    0.0271372195 >
    0.2377755564    0.0000000041   -0.0000000047    0.0000000032 >
    0.1025175027    0.4404928273   -0.3674926057    0.0000000061 >
   -0.4883118166   -0.1202105735   -0.0000000049    0.0000000056 >
   -0.0000000043   -0.4917120330   -0.0000000034    0.0000000024 >
    0.1291891866    0.0000000026   -0.0000000009   -0.1005976579 >
    0.1291891866   -0.1005976579    0.0000000029
CT  3  -0.7768900509  -0.4873569769   0.0000000009
    0.4608295610   -0.1706152887   -0.0000000048    0.0078643483 >
   -0.2324718055   -0.0000000032   -0.0000000041   -0.0000000025 >
   -0.1163942978    0.4805370065    0.3225891696   -0.0000000048 >
    0.4345526273   -0.1708434668   -0.0000000034   -0.0000000043 >
   -0.0000000030   -0.4881731767   -0.0000000029   -0.0000000017 >
   -0.1486936896   -0.0000000019   -0.0000000005   -0.1036831282 >
   -0.1486936896   -0.1036831282    0.0000000022
CT  4   0.0120640186   0.4153348238  -0.5096521003
   -0.0295643335   -0.4318986788    0.4586951267   -0.4319025844 >
    0.0095433418    0.0043067334    0.4586151932    0.0013898200 >
    0.0232633733    0.1831024218   -0.0111274953    0.0122263950 >
   -0.0112619567   -0.2180875749    0.7321563705    0.0105218200 >
    0.6677915900    0.1139702654   -1.0182982157    0.0313531638 >
   -0.0499763553    0.0304708173    0.1661027176   -1.9016393734 >
   -0.0465995123   -1.8226581666    0.9166402123
CT  5   0.0120640184   0.4153348267   0.5096520983
   -0.0295643342   -0.4318986964   -0.4586951349   -0.4319026021 >
    0.0095433431   -0.0043067322   -0.4586152013   -0.0013898189 >
    0.0232633726    0.1831024251   -0.0111274937   -0.0122263942 >
   -0.0112619551   -0.2180875871   -0.7321563847   -0.0105218192 >
   -0.6677916028    0.1139702751    1.0182982093   -0.0313531635 >
   -0.0499763543   -0.0304708170   -0.1661027384   -1.9016393694 >
   -0.0465995113   -1.8226581619   -0.9166401863
CT  1   0.0048526736   0.1301657906   0.0000000000 -- FOR W= 0.138651I A.U.
    0.0003405861    0.0060068286    0.0000000000    0.0060064977 >
   -0.0002535072    0.0000000000    0.0000000000    0.0000000000 >
   -0.0000959546   -0.0003677167   -0.0000682287    0.0000000000 >
   -0.0000771045    0.0027961554    0.0000000001    0.0000000000 >
    0.0000000001   -0.0024281078   -0.0000000001    0.0000000000 >
    0.0000529247   -0.0000000000   -0.0000000001    0.0018811116 >
    0.0000529247    0.0018811116    0.0000000001
CT  2   0.7438647372  -0.5242563509   0.0000000012
   -0.4505427281   -0.1406581258   -0.0000000052    0.0338851506 >
    0.2300826283    0.0000000038   -0.0000000045    0.0000000031 >
    0.0974465779    0.4138540262   -0.3571110511    0.0000000057 >
   -0.4801245730   -0.1146234564   -0.0000000046    0.0000000053 >
   -0.0000000042   -0.4737738462   -0.0000000032    0.0000000025 >
    0.1263443570    0.0000000027   -0.0000000008   -0.0984980465 >
    0.1263443570   -0.0984980465    0.0000000029
CT  3  -0.7768900509  -0.4873569769   0.0000000009
    0.4493189034   -0.1663408339   -0.0000000045    0.0157212154 >
   -0.2248970316   -0.0000000030   -0.0000000039   -0.0000000024 >
   -0.1102111031    0.4531025569    0.3145562360   -0.0000000044 >
    0.4287670047   -0.1643082260   -0.0000000032   -0.0000000041 >
   -0.0000000029   -0.4708563802   -0.0000000027   -0.0000000018 >
   -0.1452315089   -0.0000000020   -0.0000000004   -0.1013544405 >
   -0.1452315089   -0.1013544405    0.0000000023
CT  4   0.0120640186   0.4153348238  -0.5096521003
   -0.0286121479   -0.4066272348    0.4246510115   -0.4066286125 >
    0.0092553396    0.0026466213    0.4246022874    0.0009109666 >
    0.0213677595    0.1532917624   -0.0094470657    0.0103616420 >
   -0.0094944962   -0.2045868731    0.6595174657    0.0092478865 >
    0.6191698410    0.1008065475   -0.9660024962    0.0278487795 >
   -0.0454133327    0.0273432830    0.1292174513   -1.7481919692 >
   -0.0433549510   -1.6986819100    0.8771813938
CT  5   0.0120640184   0.4153348267   0.5096520983
   -0.0286121486   -0.4066272515   -0.4246510193   -0.4066286292 >
    0.0092553409   -0.0026466202   -0.4246022952   -0.0009109656 >
    0.0213677588    0.1532917654   -0.0094470642   -0.0103616412 >
   -0.0094944947   -0.2045868844   -0.6595174788   -0.0092478857 >
   -0.6191698531    0.1008065565    0.9660024904   -0.0278487792 >
   -0.0454133317   -0.0273432829   -0.1292174706   -1.7481919655 >
   -0.0433549501   -1.6986819057   -0.8771813697
CT  1   0.0048526736   0.1301657906   0.0000000000 -- FOR W= 0.233223I A.U.
    0.0003130189    0.0056413429    0.0000000000    0.0056410766 >
   -0.0002354195    0.0000000000    0.0000000000    0.0000000000 >
   -0.0000847431   -0.0004960196   -0.0000602998    0.0000000000 >
   -0.0000674435    0.0027653510    0.0000000001    0.0000000000 >
    0.0000000001   -0.0022690651   -0.0000000001    0.0000000000 >
    0.0000510523    0.0000000000   -0.0000000001    0.0018148705 >
    0.0000510523    0.0018148705    0.0000000001
CT  2   0.7438647372  -0.5242563509   0.0000000012