!
! NOTE:
!
! SCREEN and SCREEN2 parameters were removed from the input file
! so that the COUL, IND and DISP interaction energies are not
! corrected for the charge-penetration effects.
! This is only for reference to be consistent with the implementation
! of the EFP2 in OEPDev (where charge penetration is not implemented).
!
! Also, DISP was disabled because as for not it is not necessary.
!
!                           BB,   Gundelfingen, 25 June 2020
!
 $contrl scftyp=rhf runtyp=energy icharg=0 mult=1 units=angstrom
         coord=fragonly ispher=-1 
         icut=20 itol=30 $end
 $scf    dirscf=.t. fdiff=.f. diis=.t. soscf=.f.
         conv=1d-11  $end
 $system mwords=125 $end
 $basis  gbasis=n311 ngauss=6 nffunc=1 ndfunc=2 npfunc=0 
         diffsp=.true. diffs=.true. $end
 $efrag
coord=cart iscrelec=0 iscrpol=0 iscrdisp=0 nodisp
fragname=FRAG1
A01O    0.96943962   -4.30611830   -2.18131914
A02H    1.33484947   -5.15964797   -1.90563925
A03H    0.84645967   -3.85900848   -1.31465948
fragname=FRAG2
A01O    0.68566672   -3.29150751    0.35530271
A02H    1.27681435   -2.98781302    1.05982438
A03H   -0.15089179   -2.83377588    0.59359212
 $end
 $FRAG1
EFP DATA FOR FRAGNAME SCFTYP=RHF     ... GENERATED WITH BASIS SET=XXX
 COORDINATES (BOHR)
A01O       0.0048611891   0.1306605128   0.0000000000  15.9949100  8.0
A02H       1.3876132584  -1.0684166089   0.0000000000   1.0078250  1.0
A03H      -1.4647638380  -1.0052600150   0.0000000000   1.0078250  1.0
BO21       0.6962372238  -0.4688780480   0.0000000000   0.0000000  0.0
BO31      -0.7299513244  -0.4372997511   0.0000000000   0.0000000  0.0
 STOP
 MONOPOLES 
A01O      -8.5118925468   8.00000
A02H      -0.4305050626   1.00000
A03H      -0.4329150484   1.00000
BO21      -0.3191888298   0.00000
BO31      -0.3054985124   0.00000
 STOP
 DIPOLES 
A01O       -0.0075116360   -0.4112849621    0.0000000000
A02H        0.0101427456    0.0002727409    0.0000000000
A03H       -0.0107355880    0.0004724641    0.0000000000
BO21       -0.2253387353    0.2437094881    0.0000000000
BO31        0.2462620226    0.2216889186    0.0000000000
 STOP
 QUADRUPOLES 
A01O       -4.0132074466   -4.3506627334   -4.9985215121   -0.0113041765 >
           -0.0000000000   -0.0000000000
A02H       -0.2610103440   -0.2565531177   -0.2608858313   -0.0022795348 >
           -0.0000000000    0.0000000000
A03H       -0.2657179192   -0.2615782576   -0.2655867666    0.0023751913 >
            0.0000000000    0.0000000000
BO21       -0.0402092421   -0.0443869342   -0.0985695311   -0.0513545287 >
           -0.0000000000    0.0000000000
BO31       -0.0112642539   -0.0284210339   -0.0832298163    0.0455216867 >
            0.0000000000    0.0000000000
 STOP
 OCTUPOLES  
A01O         -0.022985269     -1.429631571      0.000000000     -0.425414019 >
              0.000000000     -0.011475402      0.000000000     -0.009975758 >
             -0.474184699     -0.000000000
A02H          0.002478397      0.027360883      0.000000000      0.009527902 >
              0.000000000     -0.000575409      0.000000000      0.000974000 >
              0.008485562     -0.000000000
A03H         -0.001790513      0.026959096      0.000000000      0.009584356 >
              0.000000000      0.000744651      0.000000000     -0.000779020 >
              0.008431551      0.000000000
BO21         -0.539311955      0.733719181      0.000000000      0.270743282 >
              0.000000000     -0.197558477      0.000000000     -0.166350960 >
              0.235908169     -0.000000000
BO31          0.635736972      0.662326163      0.000000000      0.247024337 >
              0.000000000      0.227638482      0.000000000      0.194497484 >
              0.214662193      0.000000000
 STOP
 POLARIZABLE POINTS
CT1   0.7448897847  -0.5279140272  -0.0000007988
    2.7052519445    1.9478942831    0.3802509782   -1.7977359528 >
   -0.0000007536    0.0000010110   -1.6387859744   -0.0000013102 >
    0.0000015748
CT2  -0.7780551602  -0.4909392254  -0.0000004878
    3.0060841283    1.8323733539    0.3867010814    1.8288275609 >
    0.0000004926    0.0000006016    1.6705666820    0.0000008652 >
    0.0000009429
CT3   0.0119186750   0.4140145167   0.5114661860
    1.1427249002    1.3509805894    2.4700449556    0.0151760619 >
    0.0271206751    0.8175585064    0.0146982934    0.0322116318 >
    0.9262771584
CT4   0.0119184953   0.4140170093  -0.5114648995
    1.1427343035    1.3509920683    2.4700289224    0.0151748041 >
   -0.0271204141   -0.8175601189    0.0146969941   -0.0322111867 >
   -0.9262796752
 STOP
 DYNAMIC POLARIZABLE POINTS
CT  1   0.7448897847  -0.5279140272  -0.0000007988 -- FOR W= 0.002792I A.U.
    2.7049637844    1.9477393736    0.3801444170   -1.7977935997 >
   -0.0000007541    0.0000010112   -1.6386720378   -0.0000013092 >
    0.0000015740
CT  2  -0.7780551602  -0.4909392254  -0.0000004878
    3.0059782652    1.8322147256    0.3866285621    1.8287945788 >
    0.0000004928    0.0000006017    1.6704288530    0.0000008645 >
    0.0000009425
CT  3   0.0119186750   0.4140145167   0.5114661860
    1.1429345056    1.3509701267    2.4700514365    0.0150686935 >
    0.0271332651    0.8174788857    0.0146985480    0.0322504478 >
    0.9261847109
CT  4   0.0119184953   0.4140170093  -0.5114648995
    1.1429439100    1.3509816050    2.4700354022    0.0150674361 >
   -0.0271330038   -0.8174804985    0.0146972488   -0.0322500031 >
   -0.9261872274
CT  1   0.7448897847  -0.5279140272  -0.0000007988 -- FOR W= 0.015107I A.U.
    2.7034072923    1.9466680039    0.3801006815   -1.7965000177 >
   -0.0000007535    0.0000010103   -1.6372956817   -0.0000013052 >
    0.0000015711
CT  2  -0.7780551602  -0.4909392254  -0.0000004878
    3.0041452956    1.8311994783    0.3865815413    1.8274415455 >
    0.0000004924    0.0000006011    1.6689860191    0.0000008619 >
    0.0000009407
CT  3   0.0119186750   0.4140145167   0.5114661860
    1.1424166540    1.3499351679    2.4678060420    0.0150321328 >
    0.0270964255    0.8166147938    0.0146654814    0.0321736940 >
    0.9244735002
CT  4   0.0119184953   0.4140170093  -0.5114648995
    1.1424260510    1.3499466330    2.4677900249    0.0150308761 >
   -0.0270961644   -0.8166164052    0.0146641832   -0.0321732507 >
   -0.9244760120
CT  1   0.7448897847  -0.5279140272  -0.0000007988 -- FOR W= 0.039002I A.U.
    2.6943221908    1.9404211940    0.3798483892   -1.7889517196 >
   -0.0000007496    0.0000010050   -1.6292807240   -0.0000012823 >
    0.0000015540
CT  2  -0.7780551602  -0.4909392254  -0.0000004878
    2.9934498143    1.8252810297    0.3863102491    1.8195478343 >
    0.0000004898    0.0000005979    1.6605851405    0.0000008469 >
    0.0000009305
CT  3   0.0119186750   0.4140145167   0.5114661860
    1.1393942901    1.3439162597    2.4547765914    0.0148201940 >
    0.0268825708    0.8115902238    0.0144736835    0.0317313518 >
    0.9145861234
CT  4   0.0119184953   0.4140170093  -0.5114648995
    1.1394036435    1.3439276483    2.4547606741    0.0148189408 >
   -0.0268823110   -0.8115918268    0.0144723906   -0.0317309165 >
   -0.9145886080
CT  1   0.7448897847  -0.5279140272  -0.0000007988 -- FOR W= 0.077996I A.U.
    2.6628649628    1.9188767628    0.3790122412   -1.7628450108 >
   -0.0000007363    0.0000009871   -1.6017708618   -0.0000012066 >
    0.0000014973
CT  2  -0.7780551602  -0.4909392254  -0.0000004878
    2.9564607505    1.8048837715    0.3854105102    1.7922658935 >
    0.0000004808    0.0000005870    1.6317663741    0.0000007975 >
    0.0000008965
CT  3   0.0119186750   0.4140145167   0.5114661860
    1.1289328168    1.3233617180    2.4106328665    0.0141053351 >
    0.0261573161    0.7944398583    0.0138252793    0.0302711253 >
    0.8816274982
CT  4   0.0119184953   0.4140170093  -0.5114648995
    1.1289420199    1.3233728451    2.4106172875    0.0141040941 >
   -0.0261570606   -0.7944414325    0.0138240051   -0.0302707162 >
   -0.8816298920
CT  1   0.7448897847  -0.5279140272  -0.0000007988 -- FOR W= 0.138651I A.U.
    2.5771665523    1.8607897015    0.3769866212   -1.6919554806 >
   -0.0000007008    0.0000009402   -1.5286248202   -0.0000010263 >
    0.0000013585
CT  2  -0.7780551602  -0.4909392254  -0.0000004878
    2.8560245669    1.7499995406    0.3832263561    1.7183308058 >
    0.0000004570    0.0000005586    1.5552591653    0.0000006799 >
    0.0000008135
CT  3   0.0119186750   0.4140145167   0.5114661860
    1.1004538006    1.2695062944    2.2971557828    0.0123001035 >
    0.0242950389    0.7495717368    0.0121768890    0.0267860192 >
    0.8007727514
CT  4   0.0119184953   0.4140170093  -0.5114648995
    1.1004625958    1.2695167375    2.2971410736    0.0122988977 >
   -0.0242947951   -0.7495732356    0.0121756651   -0.0267856728 >
   -0.8007749234
CT  1   0.7448897847  -0.5279140272  -0.0000007988 -- FOR W= 0.233223I A.U.
    2.3780990142    1.7284594727    0.3732367279   -1.5286367719 >
   -0.0000006231    0.0000008414   -1.3675390504   -0.0000007191 >
    0.0000011042
CT  2  -0.7780551602  -0.4909392254  -0.0000004878
    2.6244181722    1.6255116519    0.3791639198    1.5487283321 >
    0.0000004053    0.0000004989    1.3873891537    0.0000004795 >
    0.0000006619
CT  3   0.0119186750   0.4140145167   0.5114661860
    1.0343315688    1.1551037638    2.0626738645    0.0088200190 >
    0.0205311710    0.6546668698    0.0089451814    0.0207459969 >
    0.6514737113
CT  4   0.0119184953   0.4140170093  -0.5114648995
    1.0343394255    1.1551127609    2.0626609521    0.0088189023 >
   -0.0205309533   -0.6546682101    0.0089440723   -0.0207457573 >
   -0.6514754774
CT  1   0.7448897847  -0.5279140272  -0.0000007988 -- FOR W= 0.385897I A.U.
    1.9905994993    1.4755774675    0.3670774178   -1.2166935143 >
   -0.0000004925    0.0000006806   -1.0805293989   -0.0000003936 >
    0.0000007758
CT  2  -0.7780551602  -0.4909392254  -0.0000004878
    2.1792186074    1.3892663529    0.3724837706    1.2271455184 >
    0.0000003197    0.0000004024    1.0904173985    0.0000002666 >
    0.0000004663
CT  3   0.0119186750   0.4140145167   0.5114661860
    0.9050112526    0.9657865480    1.6768333519    0.0043030323 >
    0.0149256033    0.4996346586    0.0045870305    0.0136673207 >
    0.4551648517
CT  4   0.0119184953   0.4140170093  -0.5114648995
    0.9050173208    0.9657931899    1.6768233848    0.0043021117 >
   -0.0149254305   -0.4996357416    0.0045861390   -0.0136671937 >
   -0.4551660938
CT  1   0.7448897847  -0.5279140272  -0.0000007988 -- FOR W= 0.649114I A.U.
    1.4068356773    1.0882363679    0.3518909886   -0.7664695472 >
   -0.0000003527    0.0000004902   -0.6899272194   -0.0000002322 >
    0.0000004842
CT  2  -0.7780551602  -0.4909392254  -0.0000004878
    1.5197739746    1.0295706556    0.3564444406    0.7674192975 >
    0.0000002292    0.0000002888    0.6906014904    0.0000001580 >
    0.0000002908
CT  3   0.0119186750   0.4140145167   0.5114661860
    0.7045267916    0.7328037823    1.1808885449    0.0013186535 >
    0.0091753419    0.3178935842    0.0014566953    0.0079895559 >
    0.2753048131
CT  4   0.0119184953   0.4140170093  -0.5114648995
    0.7045303004    0.7328077032    1.1808822808    0.0013180574 >
   -0.0091752184   -0.3178943632    0.0014561236   -0.0079894817 >
   -0.2753055881
CT  1   0.7448897847  -0.5279140272  -0.0000007988 -- FOR W= 1.153904I A.U.
    0.7766351688    0.6383079267    0.3017365263   -0.3286031184 >
   -0.0000002617    0.0000003103   -0.3091192607   -0.0000002194 >
    0.0000002834
CT  2  -0.7780551602  -0.4909392254  -0.0000004878
    0.8225292179    0.6109299451    0.3049048799    0.3253040730 >
    0.0000001696    0.0000001813    0.3059184394    0.0000001440 >
    0.0000001672
CT  3   0.0119186750   0.4140145167   0.5114661860
    0.4619913338    0.4958391685    0.6889135963    0.0009356167 >
    0.0047240609    0.1657498050    0.0008864548    0.0041534574 >
    0.1482684510
CT  4   0.0119184953   0.4140170093  -0.5114648995
    0.4619924774    0.4958409440    0.6889106829    0.0009353627 >
   -0.0047239687   -0.1657502967    0.0008862072   -0.0041533821 >
   -0.1482689015
CT  1   0.7448897847  -0.5279140272  -0.0000007988 -- FOR W= 2.307592I A.U.
    0.2976772677    0.2602452363    0.1797697981   -0.0771603320 >
   -0.0000001523    0.0000001408   -0.0770008045   -0.0000001595 >
    0.0000001366
CT  2  -0.7780551602  -0.4909392254  -0.0000004878
    0.3079066681    0.2532995924    0.1811267532    0.0751209821 >
    0.0000000979    0.0000000811    0.0750430885    0.0000001023 >
    0.0000000783
CT  3   0.0119186750   0.4140145167   0.5114661860
    0.2159664275    0.2456775035    0.2950444911    0.0008635973 >
    0.0017380675    0.0639800959    0.0008228122    0.0016126870 >
    0.0618206487
CT  4   0.0119184953   0.4140170093  -0.5114648995
    0.2159664979    0.2456780847    0.2950435899    0.0008635404 >
   -0.0017380131   -0.0639803178    0.0008227523   -0.0016126298 >
   -0.0618208636
CT  1   0.7448897847  -0.5279140272  -0.0000007988 -- FOR W= 5.957643I A.U.
    0.0578109193    0.0529910840    0.0447261509   -0.0086606423 >
   -0.0000000346    0.0000000283   -0.0089035532   -0.0000000411 >
    0.0000000317
CT  2  -0.7780551602  -0.4909392254  -0.0000004878
    0.0588692384    0.0521458298    0.0449303767    0.0083177270 >
    0.0000000222    0.0000000161    0.0085720348    0.0000000262 >
    0.0000000180
CT  3   0.0119186750   0.4140145167   0.5114661860
    0.0473461449    0.0548948388    0.0629245308    0.0002246539 >
    0.0003245186    0.0123761851    0.0002189808    0.0003126620 >
    0.0123028933
CT  4   0.0119184953   0.4140170093  -0.5114648995
    0.0473461280    0.0548949455    0.0629243796    0.0002246475 >
   -0.0003245061   -0.0123762295    0.0002189725   -0.0003126471 >
   -0.0123029429
CT  1   0.7448897847  -0.5279140272  -0.0000007988 -- FOR W=32.239080I A.U.
    0.0021736024    0.0020286279    0.0017639093   -0.0002871488 >
   -0.0000000013    0.0000000010   -0.0002952312   -0.0000000016 >
    0.0000000012
CT  2  -0.7780551602  -0.4909392254  -0.0000004878
    0.0022064066    0.0019987668    0.0017689756    0.0002766339 >
    0.0000000008    0.0000000006    0.0002850642    0.0000000010 >
    0.0000000007
CT  3   0.0119186750   0.4140145167   0.5114661860
    0.0018489486    0.0021285133    0.0024479367    0.0000083279 >
    0.0000120292    0.0004570358    0.0000081546    0.0000116469 >
    0.0004544727
CT  4   0.0119184953   0.4140170093  -0.5114648995
    0.0018489482    0.0021285174    0.0024479313    0.0000083277 >
   -0.0000120287   -0.0004570374    0.0000081543   -0.0000116464 >
   -0.0004544746
 STOP
 DIPOLE-QUADRUPOLE DYNAMIC POLARIZABLE POINTS
CT  1   0.7448897847  -0.5279140272  -0.0000007988 -- FOR W= 0.002792I A.U.
   -0.4412646089   -0.2026675585    0.0000039619   -0.0248755196 >
    0.3006019969   -0.0000031147    0.0000033418   -0.0000024845 >
    0.0146588551    0.3368770240   -0.3723736151   -0.0000046910 >
   -0.4983773720   -0.0450052177    0.0000035459   -0.0000042528 >
    0.0000031002   -0.4696638452    0.0000026104   -0.0000019556 >
    0.0045767035   -0.0000021449    0.0000007485    0.0097411530 >
    0.0045767035    0.0097411530   -0.0000022931
CT  2  -0.7780551602  -0.4909392254  -0.0000004878
    0.4333547728   -0.2295528597    0.0000028243   -0.0447269544 >
   -0.2898535810    0.0000019841    0.0000023905    0.0000015945 >
   -0.0268792716    0.3767693109    0.3461816255    0.0000029578 >
    0.4628035456   -0.0878468602    0.0000019677    0.0000026759 >
    0.0000017167   -0.4737483560    0.0000017978    0.0000011521 >
   -0.0122945507    0.0000012761    0.0000003427    0.0037952094 >
   -0.0122945507    0.0037952094   -0.0000014558
CT  3   0.0119186750   0.4140145167   0.5114661860
   -0.0258189668   -0.3749767145   -0.3897717905   -0.3749833319 >
    0.0079108627   -0.0053316216   -0.3896803055   -0.0018697643 >
    0.0216041346    0.2073689001   -0.0110896274   -0.0129530534 >
   -0.0113194959   -0.1664637826   -0.7185633864   -0.0112935847 >
   -0.6510547019    0.0425005307    1.1586742552   -0.0331686098 >
   -0.0511381466   -0.0319341720   -0.1636285801   -1.9812113532 >
   -0.0472122477   -1.8978123224   -1.0626458447
CT  4   0.0119184953   0.4140170093  -0.5114648995
   -0.0258193931   -0.3749900542    0.3897779092   -0.3749966723 >
    0.0079122032    0.0053303867    0.3896864288    0.0018685928 >
    0.0216030425    0.2073713027   -0.0110876929    0.0129521569 >
   -0.0113175887   -0.1664724833    0.7185747124    0.0112927326 >
    0.6510650603    0.0425073129   -1.1586683878    0.0331682385 >
   -0.0511370289    0.0319338823    0.1636461717   -1.9812074581 >
   -0.0472112805   -1.8978079438    1.0626233486
CT  1   0.7448897847  -0.5279140272  -0.0000007988 -- FOR W= 0.015107I A.U.
   -0.4411700570   -0.2025671917    0.0000039561   -0.0246826665 >
    0.3004691517   -0.0000031105    0.0000033397   -0.0000024828 >
    0.0146316021    0.3364291857   -0.3722294306   -0.0000046853 >
   -0.4982987338   -0.0448938430    0.0000035417   -0.0000042494 >
    0.0000030977   -0.4694198680    0.0000026071   -0.0000019565 >
    0.0045273009   -0.0000021462    0.0000007475    0.0097812641 >
    0.0045273009    0.0097812641   -0.0000022940
CT  2  -0.7780551602  -0.4909392254  -0.0000004878
    0.4332520206   -0.2294452700    0.0000028201   -0.0445145600 >
   -0.2897258230    0.0000019814    0.0000023889    0.0000015934 >
   -0.0268381475    0.3763098702    0.3460752136    0.0000029541 >
    0.4627632637   -0.0877265779    0.0000019654    0.0000026737 >
    0.0000017153   -0.4735140023    0.0000017957    0.0000011528 >
   -0.0122339231    0.0000012770    0.0000003420    0.0038392994 >
   -0.0122339231    0.0038392994   -0.0000014565
CT  3   0.0119186750   0.4140145167   0.5114661860
   -0.0258011080   -0.3744710716   -0.3891279937   -0.3744776266 >
    0.0079025566   -0.0052968290   -0.3890372222   -0.0018624400 >
    0.0215661297    0.2067874441   -0.0110580924   -0.0129174353 >
   -0.0112857910   -0.1662340388   -0.7171611850   -0.0112704307 >
   -0.6501785797    0.0422022715    1.1576487011   -0.0330992648 >
   -0.0510458408   -0.0318744699   -0.1629060035   -1.9781648995 >
   -0.0471505641   -1.8954157777   -1.0618160743
CT  4   0.0119184953   0.4140170093  -0.5114648995
   -0.0258015335   -0.3744843987    0.3891341069   -0.3744909544 >
    0.0079038967    0.0052955955    0.3890433401    0.0018612696 >
    0.0215650382    0.2067898422   -0.0110561598    0.0129165396 >
   -0.0112838855   -0.1662427273    0.7171724944    0.0112695791 >
    0.6501889266    0.0422090452   -1.1576428442    0.0330988961 >
   -0.0510447252    0.0318741823    0.1629235714   -1.9781610103 >
   -0.0471495980   -1.8954114059    1.0617936074
CT  1   0.7448897847  -0.5279140272  -0.0000007988 -- FOR W= 0.039002I A.U.
   -0.4406055514   -0.2019675119    0.0000039226   -0.0235615716 >
    0.2996880375   -0.0000030864    0.0000033274   -0.0000024733 >
    0.0144786764    0.3338268780   -0.3713868597   -0.0000046519 >
   -0.4978256972   -0.0442431767    0.0000035177   -0.0000042298 >
    0.0000030829   -0.4679896416    0.0000025874   -0.0000019621 >
    0.0042403524   -0.0000021537    0.0000007418    0.0100143053 >
    0.0042403524    0.0100143053   -0.0000022993
CT  2  -0.7780551602  -0.4909392254  -0.0000004878
    0.4326414772   -0.2288021398    0.0000027963   -0.0432795236 >
   -0.2889753677    0.0000019661    0.0000023795    0.0000015868 >
   -0.0266045769    0.3736391289    0.3454517353    0.0000029329 >
    0.4625132679   -0.0870228174    0.0000019518    0.0000026611 >
    0.0000017069   -0.4721389278    0.0000017840    0.0000011569 >
   -0.0118816771    0.0000012820    0.0000003378    0.0040955189 >
   -0.0118816771    0.0040955189   -0.0000014600
CT  3   0.0119186750   0.4140145167   0.5114661860
   -0.0256950592   -0.3715283107   -0.3853807278   -0.3715345057 >
    0.0078553235   -0.0050977008   -0.3852940412   -0.0018206595 >
    0.0213445265    0.2034403523   -0.0108754339   -0.0127121027 >
   -0.0110906245   -0.1648749500   -0.7090539647   -0.0111365833 >
   -0.6450912682    0.0404591725    1.1516911617   -0.0327000302 >
   -0.0505136636   -0.0315301936   -0.1587519771   -1.9605486068 >
   -0.0467936823   -1.8815302268   -1.0569885675
CT  4   0.0119184953   0.4140170093  -0.5114648995
   -0.0256954796   -0.3715415645    0.3853868093   -0.3715477600 >
    0.0078566618    0.0050964753    0.3853001272    0.0018194952 >
    0.0213434386    0.2034427239   -0.0108735126    0.0127112121 >
   -0.0110887291   -0.1648835677    0.7090651777    0.0111357344 >
    0.6451015488    0.0404658969   -1.1516853658    0.0326996767 >
   -0.0505125598    0.0315299189    0.1587694072   -1.9605447520 >
   -0.0467927225   -1.8815258945    1.0569662697
CT  1   0.7448897847  -0.5279140272  -0.0000007988 -- FOR W= 0.077996I A.U.
   -0.4384880580   -0.1997136534    0.0000038105   -0.0197399212 >
    0.2969099477   -0.0000030060    0.0000032850   -0.0000024406 >
    0.0140281563    0.3249680534   -0.3684564619   -0.0000045394 >
   -0.4960064158   -0.0419834801    0.0000034364   -0.0000041623 >
    0.0000030324   -0.4629583055    0.0000025217   -0.0000019789 >
    0.0032644051   -0.0000021765    0.0000007227    0.0108076665 >
    0.0032644051    0.0108076665   -0.0000023149
CT  2  -0.7780551602  -0.4909392254  -0.0000004878
    0.4303880677   -0.2263811651    0.0000027166   -0.0390649462 >
   -0.2863158046    0.0000019150    0.0000023470    0.0000015643 >
   -0.0258789984    0.3645341495    0.3432620876    0.0000028614 >
    0.4614553522   -0.0845650074    0.0000019060    0.0000026176 >
    0.0000016781   -0.4672853611    0.0000017443    0.0000011695 >
   -0.0106823863    0.0000012975    0.0000003237    0.0049685848 >
   -0.0106823863    0.0049685848   -0.0000014704
CT  3   0.0119186750   0.4140145167   0.5114661860
   -0.0253055835   -0.3614523271   -0.3725439334   -0.3614573340 >
    0.0077069791   -0.0044581061   -0.3724703866   -0.0016884823 >
    0.0205807952    0.1924420267   -0.0102612242   -0.0120338385 >
   -0.0104351450   -0.1599508185   -0.6819658898   -0.0106899554 >
   -0.6278204669    0.0344040931    1.1314251099   -0.0313871353 >
   -0.0487539106   -0.0303911119   -0.1451725477   -1.9016456439 >
   -0.0455977991   -1.8347553495   -1.0404715319
CT  4   0.0119184953   0.4140170093  -0.5114648995
   -0.0253059872   -0.3614653284    0.3725499055   -0.3614703357 >
    0.0077083103    0.0044569078    0.3724763626    0.0016873391 >
    0.0205797201    0.1924443089   -0.0102593416    0.0120329654 >
   -0.0104332840   -0.1599591959    0.6819767788    0.0106891160 >
    0.6278305209    0.0344106494   -1.1314195175    0.0313868318 >
   -0.0487528461    0.0303908796    0.1451895147   -1.9016419031 >
   -0.0455968604   -1.8347511480    1.0404498036
CT  1   0.7448897847  -0.5279140272  -0.0000007988 -- FOR W= 0.138651I A.U.
   -0.4315158698   -0.1922934006    0.0000035328   -0.0097983898 >
    0.2888037275   -0.0000028067    0.0000031691   -0.0000023532 >
    0.0133753222    0.3019739137   -0.3603693465   -0.0000042543 >
   -0.4897061665   -0.0357951669    0.0000032289   -0.0000039827 >
    0.0000028977   -0.4486737575    0.0000023581   -0.0000020086 >
    0.0007239945   -0.0000022181    0.0000006747    0.0128779552 >
    0.0007239945    0.0128779552   -0.0000023379
CT  2  -0.7780551602  -0.4909392254  -0.0000004878
    0.4232171584   -0.2183839306    0.0000025187   -0.0280658335 >
   -0.2786216459    0.0000017879    0.0000022586    0.0000015045 >
   -0.0245081152    0.3408010429    0.3370613214    0.0000026803 >
    0.4571487187   -0.0777310494    0.0000017890    0.0000025021 >
    0.0000016013   -0.4533880906    0.0000016442    0.0000011929 >
   -0.0075514247    0.0000013263    0.0000002896    0.0072527338 >
   -0.0075514247    0.0072527338   -0.0000014860
CT  3   0.0119186750   0.4140145167   0.5114661860
   -0.0241018097   -0.3348845519   -0.3386484388   -0.3348867547 >
    0.0073970547   -0.0030608884   -0.3386039050   -0.0014194052 >
    0.0185393144    0.1665774543   -0.0087238948   -0.0104184558 >
   -0.0088004137   -0.1452353064   -0.6151418005   -0.0095976136 >
   -0.5833448555    0.0179414365    1.0787624591   -0.0282859546 >
   -0.0445258238   -0.0276543740   -0.1137746542   -1.7557613979 >
   -0.0426147456   -1.7164800164   -0.9968292837
CT  4   0.0119184953   0.4140170093  -0.5114648995
   -0.0241021728   -0.3348968766    0.3386541156   -0.3348990797 >
    0.0073983607    0.0030597611    0.3386095843    0.0014183189 >
    0.0185382763    0.1665795080   -0.0087221146    0.0104176283 >
   -0.0087986451   -0.1452430625    0.6151518724    0.0095968013 >
    0.5833543179    0.0179475569   -1.0787573684    0.0282857694 >
   -0.0445248553    0.0276542414    0.1137904577   -1.7557579329 >
   -0.0426138605   -1.7164761337    0.9968089965
CT  1   0.7448897847  -0.5279140272  -0.0000007988 -- FOR W= 0.233223I A.U.
   -0.4095431473   -0.1693053609    0.0000030055    0.0106947097 >
    0.2674605748   -0.0000024279    0.0000028982   -0.0000021588 >
    0.0145139521    0.2543048757   -0.3409773806   -0.0000036870 >
   -0.4685460009   -0.0214972962    0.0000028072   -0.0000035863 >
    0.0000025990   -0.4128076501    0.0000020427   -0.0000020098 >
   -0.0047252498   -0.0000022275    0.0000005819    0.0173381650 >
   -0.0047252498    0.0173381650   -0.0000023092
CT  2  -0.7780551602  -0.4909392254  -0.0000004878
    0.4015839189   -0.1934898717    0.0000021420   -0.0051937013 >
   -0.2586358269    0.0000015450    0.0000020554    0.0000013724 >
   -0.0241364951    0.2910797780    0.3214206105    0.0000023200 >
    0.4402322073   -0.0614165370    0.0000015516    0.0000022478 >
    0.0000014316   -0.4179594114    0.0000014458    0.0000012016 >
   -0.0007929276    0.0000013373    0.0000002289    0.0122015093 >
   -0.0007929276    0.0122015093   -0.0000014681
CT  3   0.0119186750   0.4140145167   0.5114661860
   -0.0208388830   -0.2780190710   -0.2658409201   -0.2780168333 >
    0.0069605686   -0.0012536364   -0.2658370795   -0.0012162494 >
    0.0141208573    0.1237274822   -0.0058237827   -0.0077006191 >
   -0.0057460541   -0.1078917676   -0.4909085478   -0.0076616819 >
   -0.4928915688   -0.0182877411    0.9675404168   -0.0230212191 >
   -0.0369961514   -0.0228307202   -0.0645779126   -1.4789811310 >
   -0.0368313371   -1.4814309199   -0.9009833239
CT  4   0.0119184953   0.4140170093  -0.5114648995
   -0.0208391740   -0.2780298876    0.2658459270   -0.2780276498 >
    0.0069617904    0.0012526595    0.2658420868    0.0012152907 >
    0.0141199145    0.1237290803   -0.0058222251    0.0076998890 >
   -0.0057444913   -0.1078982504    0.4909170173    0.0076609378 >
    0.4928997857   -0.0182825236   -0.9675362665    0.0230212293 >
   -0.0369953590    0.0228307517    0.0645914359   -1.4789781624 >
   -0.0368305619   -1.4814276184    0.9009659024
CT  1   0.7448897847  -0.5279140272  -0.0000007988 -- FOR W= 0.385897I A.U.
   -0.3509229124   -0.1115182043    0.0000022597    0.0406226837 >
    0.2195949101   -0.0000018889    0.0000023702   -0.0000018041 >
    0.0235035824    0.1797205155   -0.3006705103   -0.0000028233 >
   -0.4084949301    0.0043654980    0.0000021381   -0.0000028801 >
    0.0000020628   -0.3362269015    0.0000015795   -0.0000018563 >
   -0.0145814634   -0.0000020410    0.0000004476    0.0254174355 >
   -0.0145814634    0.0254174355   -0.0000020623
CT  2  -0.7780551602  -0.4909392254  -0.0000004878
    0.3457147784   -0.1305729557    0.0000016067    0.0290000732 >
   -0.2143219964    0.0000011962    0.0000016688    0.0000011354 >
   -0.0307049861    0.2114813799    0.2866544392    0.0000017718 >
    0.3873422352   -0.0301104765    0.0000011754    0.0000017973 >
    0.0000011284   -0.3409439324    0.0000011395    0.0000011152 >
    0.0115327557    0.0000012290    0.0000001544    0.0212377505 >
    0.0115327557    0.0212377505   -0.0000013090
CT  3   0.0119186750   0.4140145167   0.5114661860
   -0.0142137304   -0.1858323850   -0.1470082512   -0.1858273077 >
    0.0062622230   -0.0008877070   -0.1470307468   -0.0018870111 >
    0.0071625230    0.0798600095   -0.0022172514   -0.0050414992 >
   -0.0020408824   -0.0404467222   -0.3294249434   -0.0056186477 >
   -0.3570416618   -0.0735355683    0.7785646242   -0.0169536919 >
   -0.0272226226   -0.0169400810   -0.0239884787   -1.0876638742 >
   -0.0281879760   -1.1217810780   -0.7269369315
CT  4   0.0119184953   0.4140170093  -0.5114648995
   -0.0142139335   -0.1858405095    0.1470120182   -0.1858354317 >
    0.0062632220    0.0008869820    0.1470345126    0.0018862841 >
    0.0071617838    0.0798609576   -0.0022160761    0.0050409378 >
   -0.0020396879   -0.0404512672    0.3294310771    0.0056180497 >
    0.3570478630   -0.0735317641   -0.7785617634    0.0169538836 >
   -0.0272220620    0.0169402639    0.0239986024   -1.0876615525 >
   -0.0281873780   -1.1217785484    0.7269238806
CT  1   0.7448897847  -0.5279140272  -0.0000007988 -- FOR W= 0.649114I A.U.
   -0.2478171313   -0.0220507136    0.0000014606    0.0634726835 >
    0.1443072236   -0.0000012906    0.0000015953   -0.0000012943 >
    0.0428982549    0.0972925881   -0.2332358607   -0.0000018235 >
   -0.2938475135    0.0341014082    0.0000013300   -0.0000019219 >
    0.0000013348   -0.2169173934    0.0000010518   -0.0000014509 >
   -0.0291784510   -0.0000015397    0.0000002970    0.0371297403 >
   -0.0291784510    0.0371297403   -0.0000014882
CT  2  -0.7780551602  -0.4909392254  -0.0000004878
    0.2486607936   -0.0325790716    0.0000010321    0.0570736652 >
   -0.1446085667    0.0000008072    0.0000011152    0.0000008034 >
   -0.0474829148    0.1198814237    0.2254141970    0.0000011375 >
    0.2819835091    0.0098546274    0.0000007224    0.0000011914 >
    0.0000007210   -0.2193887879    0.0000007706    0.0000008729 >
    0.0298106561    0.0000009276    0.0000000885    0.0343998021 >
    0.0298106561    0.0343998021   -0.0000009407
CT  3   0.0119186750   0.4140145167   0.5114661860